%%% static parameters %%%
timespan = 1;
Fact = [2];
Distr1 = [5];
Distr2 = [10];
Clients_N = [100];
Demand_W = [15];
Lt0 = [4];
Lt1 = [4];
SS_ = [0.85];
DS_D = [8];
K = [200];
MA = [500];
%%% dynamic parameters %%%
lost_ratio_sales_ret_th = 0.6827833021518797;
lost_ratio_sales_ret_w = 53;
lost_ratio_sales_dis_th = 0.16784460359177944;
lost_ratio_sales_dis_w = 15;
lost_ratio_sales_fac_th = 0.30252412427298636;
lost_ratio_sales_fac_w = 18;
stock_customer_MA_mean_relative_th = 0.36769741077230955;
stock_customer_MA_mean_relative_w = 8;
stock_distributor_MA_mean_relative_th = 0.8271532359718871;
stock_distributor_MA_mean_relative_w = 46;
stock_retailer_MA_mean_relative_th = 0.6397981083782204;
stock_retailer_MA_mean_relative_w = 69;
stock_factory_MA_mean_relative_th = 0.3559572975894272;
stock_factory_MA_mean_relative_w = 70;
